c Generated map
c Size: 8 * 8, weights in range: 1 to 10, walls: True, with ratio 0.05
c dim 5 of 10
c
p sp 64 103
c graph contains 64 nodes and 103 arcs
c
a 1 9 4
a 9 1 4
a 1 2 1
a 2 1 1
a 2 10 8
a 10 2 8
a 2 3 4
a 3 2 4
a 3 11 1
a 11 3 1
a 3 4 5
a 4 3 5
a 4 12 8
a 12 4 8
a 4 5 4
a 5 4 4
a 5 13 9
a 13 5 9
a 7 15 3
a 15 7 3
a 7 8 9
a 8 7 9
a 8 16 10
a 16 8 10
a 9 17 5
a 17 9 5
a 9 10 10
a 10 9 10
a 10 18 7
a 18 10 7
a 10 11 3
a 11 10 3
a 11 19 4
a 19 11 4
a 11 12 4
a 12 11 4
a 12 20 9
a 20 12 9
a 12 13 9
a 13 12 9
a 13 21 4
a 21 13 4
a 13 14 8
a 14 13 8
a 14 22 7
a 22 14 7
a 14 15 5
a 15 14 5
a 15 23 2
a 23 15 2
a 15 16 7
a 16 15 7
a 16 24 8
a 24 16 8
a 17 25 1
a 25 17 1
a 17 18 1
a 18 17 1
a 18 26 5
a 26 18 5
a 18 19 7
a 19 18 7
a 19 27 6
a 27 19 6
a 19 20 7
a 20 19 7
a 20 28 1
a 28 20 1
a 20 21 8
a 21 20 8
a 21 29 1
a 29 21 1
a 21 22 6
a 22 21 6
a 22 30 3
a 30 22 3
a 22 23 8
a 23 22 8
a 23 31 5
a 31 23 5
a 23 24 8
a 24 23 8
a 24 32 9
a 32 24 9
a 25 33 4
a 33 25 4
a 25 26 2
a 26 25 2
a 26 34 10
a 34 26 10
a 26 27 6
a 27 26 6
a 27 35 7
a 35 27 7
a 27 28 8
a 28 27 8
a 28 36 6
a 36 28 6
a 28 29 5
a 29 28 5
a 29 37 6
a 37 29 6
a 29 30 5
a 30 29 5
a 30 38 3
a 38 30 3
a 30 31 3
a 31 30 3
a 31 39 9
a 39 31 9
a 31 32 4
a 32 31 4
a 32 40 3
a 40 32 3
a 33 41 3
a 41 33 3
a 33 34 9
a 34 33 9
a 34 42 8
a 42 34 8
a 34 35 4
a 35 34 4
a 35 43 7
a 43 35 7
a 35 36 1
a 36 35 1
a 36 44 10
a 44 36 10
a 36 37 7
a 37 36 7
a 37 45 3
a 45 37 3
a 37 38 5
a 38 37 5
a 38 46 1
a 46 38 1
a 38 39 9
a 39 38 9
a 39 47 7
a 47 39 7
a 39 40 6
a 40 39 6
a 41 42 4
a 42 41 4
a 42 50 1
a 50 42 1
a 42 43 4
a 43 42 4
a 43 51 8
a 51 43 8
a 43 44 8
a 44 43 8
a 44 52 10
a 52 44 10
a 44 45 10
a 45 44 10
a 45 53 6
a 53 45 6
a 45 46 1
a 46 45 1
a 46 54 5
a 54 46 5
a 46 47 3
a 47 46 3
a 47 55 3
a 55 47 3
a 50 58 6
a 58 50 6
a 50 51 9
a 51 50 9
a 51 59 3
a 59 51 3
a 51 52 5
a 52 51 5
a 52 60 9
a 60 52 9
a 52 53 1
a 53 52 1
a 53 61 9
a 61 53 9
a 53 54 10
a 54 53 10
a 54 62 1
a 62 54 1
a 54 55 3
a 55 54 3
a 55 63 1
a 63 55 1
a 55 56 8
a 56 55 8
a 56 64 4
a 64 56 4
a 57 58 8
a 58 57 8
a 58 59 1
a 59 58 1
a 59 60 5
a 60 59 5
a 60 61 8
a 61 60 8
a 61 62 8
a 62 61 8
a 62 63 7
a 63 62 7
a 63 64 1
a 64 63 1
